39
27
0 27 29 31 32 35 38
1 27 28 29 31 32 33 35
2 27 28 29 31 32 33
3 27 30 31 32 33 36
4 27 28 29 30 31 32 33 35 36
5 27 28 30 31 32 33
6 27 28 29 30 31 32 33 34 35 38
7 27 29 31 32 33 35 36 38
8 28 29 30 31 32 35 36 38
9 27 29 31 32 34 38
10 28 31 32 33 35 38
11 27 28 29 33 37
12 27 28 30 31 32 33 35 38
13 27 31 33 35
14 27 33 35 38
15 35 36 38
16 27 28 32 33
17 30
18 31 32 33 35 38
19 28 30 32 34 35
20 28 29 35
21 37
22 35 37
23 32 33
24 31
25
26
